p cnf 233 1120
c p weight 22 0 0
c p weight -22 1 0
c p weight 23 1.0 0
c p weight -23 1 0
c p weight 30 0 0
c p weight -30 1 0
c p weight 31 1.0 0
c p weight -31 1 0
c p weight 38 0 0
c p weight -38 1 0
c p weight 39 1.0 0
c p weight -39 1 0
c p weight 49 0 0
c p weight -49 1 0
c p weight 50 1.0 0
c p weight -50 1 0
c p weight 57 0 0
c p weight -57 1 0
c p weight 58 1.0 0
c p weight -58 1 0
c p weight 65 0 0
c p weight -65 1 0
c p weight 66 1.0 0
c p weight -66 1 0
c p weight 76 0 0
c p weight -76 1 0
c p weight 77 1.0 0
c p weight -77 1 0
c p weight 84 0 0
c p weight -84 1 0
c p weight 85 1.0 0
c p weight -85 1 0
c p weight 95 0 0
c p weight -95 1 0
c p weight 96 1.0 0
c p weight -96 1 0
c p weight 103 0 0
c p weight -103 1 0
c p weight 104 1.0 0
c p weight -104 1 0
c p weight 111 0 0
c p weight -111 1 0
c p weight 112 1.0 0
c p weight -112 1 0
c p weight 119 0 0
c p weight -119 1 0
c p weight 120 1.0 0
c p weight -120 1 0
c p weight 130 0 0
c p weight -130 1 0
c p weight 131 1.0 0
c p weight -131 1 0
c p weight 138 0 0
c p weight -138 1 0
c p weight 139 1.0 0
c p weight -139 1 0
c p weight 146 0 0
c p weight -146 1 0
c p weight 147 1.0 0
c p weight -147 1 0
c p weight 154 0 0
c p weight -154 1 0
c p weight 155 1.0 0
c p weight -155 1 0
c p weight 165 0 0
c p weight -165 1 0
c p weight 166 1.0 0
c p weight -166 1 0
c p weight 173 0 0
c p weight -173 1 0
c p weight 174 1.0 0
c p weight -174 1 0
c p weight 184 0 0
c p weight -184 1 0
c p weight 185 1.0 0
c p weight -185 1 0
c p weight 192 0 0
c p weight -192 1 0
c p weight 193 1.0 0
c p weight -193 1 0
c p weight 200 0 0
c p weight -200 1 0
c p weight 201 1.0 0
c p weight -201 1 0
c p weight 211 0 0
c p weight -211 1 0
c p weight 212 1.0 0
c p weight -212 1 0
c p weight 219 0 0
c p weight -219 1 0
c p weight 220 1.0 0
c p weight -220 1 0
c p weight 230 0 0
c p weight -230 1 0
c p weight 231 1.0 0
c p weight -231 1 0
18 -17 1 0
18 -17 2 0
-18 17 1 0
-18 17 2 0
18 17 -1 -2 0
-18 -17 -1 -2 0
19 1 -2 0
19 -1 2 0
-19 1 2 0
-19 -1 -2 0
20 21 -18 0
20 -18 19 0
-20 21 18 0
-20 18 19 0
20 -18 -1 0
-20 18 -1 0
20 -21 18 1 -19 0
-20 -21 -18 1 -19 0
21 -1 19 0
-21 1 19 0
-22 19 0
21 -22 -1 0
-21 -22 1 0
21 22 1 -19 0
-21 22 -1 -19 0
-23 19 0
21 -23 1 0
-21 -23 -1 0
21 23 -1 -19 0
-21 23 1 -19 0
24 -20 21 0
24 -20 19 0
-24 20 21 0
-24 20 19 0
24 20 -21 -19 0
-24 -20 -21 -19 0
25 21 -19 0
25 -21 19 0
-25 21 19 0
-25 -21 -19 0
26 -24 3 0
26 -24 4 0
-26 24 3 0
-26 24 4 0
26 24 -3 -4 0
-26 -24 -3 -4 0
27 3 -4 0
27 -3 4 0
-27 3 4 0
-27 -3 -4 0
28 29 -26 0
28 -26 27 0
-28 29 26 0
-28 26 27 0
28 -26 -3 0
-28 26 -3 0
28 -29 26 3 -27 0
-28 -29 -26 3 -27 0
29 -3 27 0
-29 3 27 0
-30 27 0
29 -30 -3 0
-29 -30 3 0
29 30 3 -27 0
-29 30 -3 -27 0
-31 27 0
29 -31 3 0
-29 -31 -3 0
29 31 -3 -27 0
-29 31 3 -27 0
32 -28 29 0
32 -28 27 0
-32 28 29 0
-32 28 27 0
32 28 -29 -27 0
-32 -28 -29 -27 0
33 29 -27 0
33 -29 27 0
-33 29 27 0
-33 -29 -27 0
34 -32 29 0
34 -32 33 0
-34 32 29 0
-34 32 33 0
34 32 -29 -33 0
-34 -32 -29 -33 0
35 29 -33 0
35 -29 33 0
-35 29 33 0
-35 -29 -33 0
36 37 -34 0
36 -34 35 0
-36 37 34 0
-36 34 35 0
36 -34 -29 0
-36 34 -29 0
36 -37 34 29 -35 0
-36 -37 -34 29 -35 0
37 -29 35 0
-37 29 35 0
-38 35 0
37 -38 -29 0
-37 -38 29 0
37 38 29 -35 0
-37 38 -29 -35 0
-39 35 0
37 -39 29 0
-37 -39 -29 0
37 39 -29 -35 0
-37 39 29 -35 0
40 -36 37 0
40 -36 35 0
-40 36 37 0
-40 36 35 0
40 36 -37 -35 0
-40 -36 -37 -35 0
41 37 -35 0
41 -37 35 0
-41 37 35 0
-41 -37 -35 0
42 -40 21 0
42 -40 41 0
-42 40 21 0
-42 40 41 0
42 -40 37 -25 0
42 -40 -37 25 0
-42 40 37 -25 0
-42 40 -37 25 0
42 40 -21 37 25 -41 0
42 40 -21 -37 -25 -41 0
-42 -40 -21 37 25 -41 0
-42 -40 -21 -37 -25 -41 0
44 21 -37 0
44 -21 37 0
-44 21 37 0
-44 -21 -37 0
43 25 -41 0
43 -25 41 0
-43 25 41 0
-43 -25 -41 0
45 -42 44 0
45 -42 41 0
-45 42 44 0
-45 42 41 0
45 42 -44 -41 0
-45 -42 -44 -41 0
46 44 -41 0
46 -44 41 0
-46 44 41 0
-46 -44 -41 0
47 48 -45 0
47 -45 46 0
-47 48 45 0
-47 45 46 0
47 -45 -44 0
-47 45 -44 0
47 -48 45 44 -46 0
-47 -48 -45 44 -46 0
48 -44 46 0
-48 44 46 0
-49 46 0
48 -49 -44 0
-48 -49 44 0
48 49 44 -46 0
-48 49 -44 -46 0
-50 46 0
48 -50 44 0
-48 -50 -44 0
48 50 -44 -46 0
-48 50 44 -46 0
51 -47 48 0
51 -47 46 0
-51 47 48 0
-51 47 46 0
51 47 -48 -46 0
-51 -47 -48 -46 0
52 48 -46 0
52 -48 46 0
-52 48 46 0
-52 -48 -46 0
53 -51 5 0
53 -51 6 0
-53 51 5 0
-53 51 6 0
53 51 -5 -6 0
-53 -51 -5 -6 0
54 5 -6 0
54 -5 6 0
-54 5 6 0
-54 -5 -6 0
55 56 -53 0
55 -53 54 0
-55 56 53 0
-55 53 54 0
55 -53 -5 0
-55 53 -5 0
55 -56 53 5 -54 0
-55 -56 -53 5 -54 0
56 -5 54 0
-56 5 54 0
-57 54 0
56 -57 -5 0
-56 -57 5 0
56 57 5 -54 0
-56 57 -5 -54 0
-58 54 0
56 -58 5 0
-56 -58 -5 0
56 58 -5 -54 0
-56 58 5 -54 0
59 -55 56 0
59 -55 54 0
-59 55 56 0
-59 55 54 0
59 55 -56 -54 0
-59 -55 -56 -54 0
60 56 -54 0
60 -56 54 0
-60 56 54 0
-60 -56 -54 0
61 -59 56 0
61 -59 60 0
-61 59 56 0
-61 59 60 0
61 59 -56 -60 0
-61 -59 -56 -60 0
62 56 -60 0
62 -56 60 0
-62 56 60 0
-62 -56 -60 0
63 64 -61 0
63 -61 62 0
-63 64 61 0
-63 61 62 0
63 -61 -56 0
-63 61 -56 0
63 -64 61 56 -62 0
-63 -64 -61 56 -62 0
64 -56 62 0
-64 56 62 0
-65 62 0
64 -65 -56 0
-64 -65 56 0
64 65 56 -62 0
-64 65 -56 -62 0
-66 62 0
64 -66 56 0
-64 -66 -56 0
64 66 -56 -62 0
-64 66 56 -62 0
67 -63 64 0
67 -63 62 0
-67 63 64 0
-67 63 62 0
67 63 -64 -62 0
-67 -63 -64 -62 0
68 64 -62 0
68 -64 62 0
-68 64 62 0
-68 -64 -62 0
69 -67 21 0
69 -67 68 0
-69 67 21 0
-69 67 68 0
69 -67 64 -43 0
69 -67 -64 43 0
-69 67 64 -43 0
-69 67 -64 43 0
69 67 -21 64 43 -68 0
69 67 -21 -64 -43 -68 0
-69 -67 -21 64 43 -68 0
-69 -67 -21 -64 -43 -68 0
71 21 -64 0
71 -21 64 0
-71 21 64 0
-71 -21 -64 0
70 43 -68 0
70 -43 68 0
-70 43 68 0
-70 -43 -68 0
72 -69 71 0
72 -69 68 0
-72 69 71 0
-72 69 68 0
72 69 -71 -68 0
-72 -69 -71 -68 0
73 71 -68 0
73 -71 68 0
-73 71 68 0
-73 -71 -68 0
74 75 -72 0
74 -72 73 0
-74 75 72 0
-74 72 73 0
74 -72 -71 0
-74 72 -71 0
74 -75 72 71 -73 0
-74 -75 -72 71 -73 0
75 -71 73 0
-75 71 73 0
-76 73 0
75 -76 -71 0
-75 -76 71 0
75 76 71 -73 0
-75 76 -71 -73 0
-77 73 0
75 -77 71 0
-75 -77 -71 0
75 77 -71 -73 0
-75 77 71 -73 0
78 -74 75 0
78 -74 73 0
-78 74 75 0
-78 74 73 0
78 74 -75 -73 0
-78 -74 -75 -73 0
79 75 -73 0
79 -75 73 0
-79 75 73 0
-79 -75 -73 0
80 -78 75 0
80 -78 79 0
-80 78 75 0
-80 78 79 0
80 78 -75 -79 0
-80 -78 -75 -79 0
81 75 -79 0
81 -75 79 0
-81 75 79 0
-81 -75 -79 0
82 83 -80 0
82 -80 81 0
-82 83 80 0
-82 80 81 0
82 -80 -75 0
-82 80 -75 0
82 -83 80 75 -81 0
-82 -83 -80 75 -81 0
83 -75 81 0
-83 75 81 0
-84 81 0
83 -84 -75 0
-83 -84 75 0
83 84 75 -81 0
-83 84 -75 -81 0
-85 81 0
83 -85 75 0
-83 -85 -75 0
83 85 -75 -81 0
-83 85 75 -81 0
86 -82 83 0
86 -82 81 0
-86 82 83 0
-86 82 81 0
86 82 -83 -81 0
-86 -82 -83 -81 0
87 83 -81 0
87 -83 81 0
-87 83 81 0
-87 -83 -81 0
88 -86 48 0
88 -86 87 0
-88 86 48 0
-88 86 87 0
88 -86 83 -52 0
88 -86 -83 52 0
-88 86 83 -52 0
-88 86 -83 52 0
88 86 -48 83 52 -87 0
88 86 -48 -83 -52 -87 0
-88 -86 -48 83 52 -87 0
-88 -86 -48 -83 -52 -87 0
90 48 -83 0
90 -48 83 0
-90 48 83 0
-90 -48 -83 0
89 52 -87 0
89 -52 87 0
-89 52 87 0
-89 -52 -87 0
91 -88 90 0
91 -88 87 0
-91 88 90 0
-91 88 87 0
91 88 -90 -87 0
-91 -88 -90 -87 0
92 90 -87 0
92 -90 87 0
-92 90 87 0
-92 -90 -87 0
93 94 -91 0
93 -91 92 0
-93 94 91 0
-93 91 92 0
93 -91 -90 0
-93 91 -90 0
93 -94 91 90 -92 0
-93 -94 -91 90 -92 0
94 -90 92 0
-94 90 92 0
-95 92 0
94 -95 -90 0
-94 -95 90 0
94 95 90 -92 0
-94 95 -90 -92 0
-96 92 0
94 -96 90 0
-94 -96 -90 0
94 96 -90 -92 0
-94 96 90 -92 0
97 -93 94 0
97 -93 92 0
-97 93 94 0
-97 93 92 0
97 93 -94 -92 0
-97 -93 -94 -92 0
98 94 -92 0
98 -94 92 0
-98 94 92 0
-98 -94 -92 0
99 -97 7 0
99 -97 8 0
-99 97 7 0
-99 97 8 0
99 97 -7 -8 0
-99 -97 -7 -8 0
100 7 -8 0
100 -7 8 0
-100 7 8 0
-100 -7 -8 0
101 102 -99 0
101 -99 100 0
-101 102 99 0
-101 99 100 0
101 -99 -7 0
-101 99 -7 0
101 -102 99 7 -100 0
-101 -102 -99 7 -100 0
102 -7 100 0
-102 7 100 0
-103 100 0
102 -103 -7 0
-102 -103 7 0
102 103 7 -100 0
-102 103 -7 -100 0
-104 100 0
102 -104 7 0
-102 -104 -7 0
102 104 -7 -100 0
-102 104 7 -100 0
105 -101 102 0
105 -101 100 0
-105 101 102 0
-105 101 100 0
105 101 -102 -100 0
-105 -101 -102 -100 0
106 102 -100 0
106 -102 100 0
-106 102 100 0
-106 -102 -100 0
107 -105 9 0
107 -105 10 0
-107 105 9 0
-107 105 10 0
107 105 -9 -10 0
-107 -105 -9 -10 0
108 9 -10 0
108 -9 10 0
-108 9 10 0
-108 -9 -10 0
109 110 -107 0
109 -107 108 0
-109 110 107 0
-109 107 108 0
109 -107 -9 0
-109 107 -9 0
109 -110 107 9 -108 0
-109 -110 -107 9 -108 0
110 -9 108 0
-110 9 108 0
-111 108 0
110 -111 -9 0
-110 -111 9 0
110 111 9 -108 0
-110 111 -9 -108 0
-112 108 0
110 -112 9 0
-110 -112 -9 0
110 112 -9 -108 0
-110 112 9 -108 0
113 -109 110 0
113 -109 108 0
-113 109 110 0
-113 109 108 0
113 109 -110 -108 0
-113 -109 -110 -108 0
114 110 -108 0
114 -110 108 0
-114 110 108 0
-114 -110 -108 0
115 -113 110 0
115 -113 114 0
-115 113 110 0
-115 113 114 0
115 113 -110 -114 0
-115 -113 -110 -114 0
116 110 -114 0
116 -110 114 0
-116 110 114 0
-116 -110 -114 0
117 118 -115 0
117 -115 116 0
-117 118 115 0
-117 115 116 0
117 -115 -110 0
-117 115 -110 0
117 -118 115 110 -116 0
-117 -118 -115 110 -116 0
118 -110 116 0
-118 110 116 0
-119 116 0
118 -119 -110 0
-118 -119 110 0
118 119 110 -116 0
-118 119 -110 -116 0
-120 116 0
118 -120 110 0
-118 -120 -110 0
118 120 -110 -116 0
-118 120 110 -116 0
121 -117 118 0
121 -117 116 0
-121 117 118 0
-121 117 116 0
121 117 -118 -116 0
-121 -117 -118 -116 0
122 118 -116 0
122 -118 116 0
-122 118 116 0
-122 -118 -116 0
123 -121 102 0
123 -121 122 0
-123 121 102 0
-123 121 122 0
123 -121 118 -106 0
123 -121 -118 106 0
-123 121 118 -106 0
-123 121 -118 106 0
123 121 -102 118 106 -122 0
123 121 -102 -118 -106 -122 0
-123 -121 -102 118 106 -122 0
-123 -121 -102 -118 -106 -122 0
125 102 -118 0
125 -102 118 0
-125 102 118 0
-125 -102 -118 0
124 106 -122 0
124 -106 122 0
-124 106 122 0
-124 -106 -122 0
126 -123 125 0
126 -123 122 0
-126 123 125 0
-126 123 122 0
126 123 -125 -122 0
-126 -123 -125 -122 0
127 125 -122 0
127 -125 122 0
-127 125 122 0
-127 -125 -122 0
128 129 -126 0
128 -126 127 0
-128 129 126 0
-128 126 127 0
128 -126 -125 0
-128 126 -125 0
128 -129 126 125 -127 0
-128 -129 -126 125 -127 0
129 -125 127 0
-129 125 127 0
-130 127 0
129 -130 -125 0
-129 -130 125 0
129 130 125 -127 0
-129 130 -125 -127 0
-131 127 0
129 -131 125 0
-129 -131 -125 0
129 131 -125 -127 0
-129 131 125 -127 0
132 -128 129 0
132 -128 127 0
-132 128 129 0
-132 128 127 0
132 128 -129 -127 0
-132 -128 -129 -127 0
133 129 -127 0
133 -129 127 0
-133 129 127 0
-133 -129 -127 0
134 -132 11 0
134 -132 12 0
-134 132 11 0
-134 132 12 0
134 132 -11 -12 0
-134 -132 -11 -12 0
135 11 -12 0
135 -11 12 0
-135 11 12 0
-135 -11 -12 0
136 137 -134 0
136 -134 135 0
-136 137 134 0
-136 134 135 0
136 -134 -11 0
-136 134 -11 0
136 -137 134 11 -135 0
-136 -137 -134 11 -135 0
137 -11 135 0
-137 11 135 0
-138 135 0
137 -138 -11 0
-137 -138 11 0
137 138 11 -135 0
-137 138 -11 -135 0
-139 135 0
137 -139 11 0
-137 -139 -11 0
137 139 -11 -135 0
-137 139 11 -135 0
140 -136 137 0
140 -136 135 0
-140 136 137 0
-140 136 135 0
140 136 -137 -135 0
-140 -136 -137 -135 0
141 137 -135 0
141 -137 135 0
-141 137 135 0
-141 -137 -135 0
142 -140 13 0
142 -140 14 0
-142 140 13 0
-142 140 14 0
142 140 -13 -14 0
-142 -140 -13 -14 0
143 13 -14 0
143 -13 14 0
-143 13 14 0
-143 -13 -14 0
144 145 -142 0
144 -142 143 0
-144 145 142 0
-144 142 143 0
144 -142 -13 0
-144 142 -13 0
144 -145 142 13 -143 0
-144 -145 -142 13 -143 0
145 -13 143 0
-145 13 143 0
-146 143 0
145 -146 -13 0
-145 -146 13 0
145 146 13 -143 0
-145 146 -13 -143 0
-147 143 0
145 -147 13 0
-145 -147 -13 0
145 147 -13 -143 0
-145 147 13 -143 0
148 -144 145 0
148 -144 143 0
-148 144 145 0
-148 144 143 0
148 144 -145 -143 0
-148 -144 -145 -143 0
149 145 -143 0
149 -145 143 0
-149 145 143 0
-149 -145 -143 0
150 -148 145 0
150 -148 149 0
-150 148 145 0
-150 148 149 0
150 148 -145 -149 0
-150 -148 -145 -149 0
151 145 -149 0
151 -145 149 0
-151 145 149 0
-151 -145 -149 0
152 153 -150 0
152 -150 151 0
-152 153 150 0
-152 150 151 0
152 -150 -145 0
-152 150 -145 0
152 -153 150 145 -151 0
-152 -153 -150 145 -151 0
153 -145 151 0
-153 145 151 0
-154 151 0
153 -154 -145 0
-153 -154 145 0
153 154 145 -151 0
-153 154 -145 -151 0
-155 151 0
153 -155 145 0
-153 -155 -145 0
153 155 -145 -151 0
-153 155 145 -151 0
156 -152 153 0
156 -152 151 0
-156 152 153 0
-156 152 151 0
156 152 -153 -151 0
-156 -152 -153 -151 0
157 153 -151 0
157 -153 151 0
-157 153 151 0
-157 -153 -151 0
158 -156 129 0
158 -156 157 0
-158 156 129 0
-158 156 157 0
158 -156 153 -133 0
158 -156 -153 133 0
-158 156 153 -133 0
-158 156 -153 133 0
158 156 -129 153 133 -157 0
158 156 -129 -153 -133 -157 0
-158 -156 -129 153 133 -157 0
-158 -156 -129 -153 -133 -157 0
160 129 -153 0
160 -129 153 0
-160 129 153 0
-160 -129 -153 0
159 133 -157 0
159 -133 157 0
-159 133 157 0
-159 -133 -157 0
161 -158 160 0
161 -158 157 0
-161 158 160 0
-161 158 157 0
161 158 -160 -157 0
-161 -158 -160 -157 0
162 160 -157 0
162 -160 157 0
-162 160 157 0
-162 -160 -157 0
163 164 -161 0
163 -161 162 0
-163 164 161 0
-163 161 162 0
163 -161 -160 0
-163 161 -160 0
163 -164 161 160 -162 0
-163 -164 -161 160 -162 0
164 -160 162 0
-164 160 162 0
-165 162 0
164 -165 -160 0
-164 -165 160 0
164 165 160 -162 0
-164 165 -160 -162 0
-166 162 0
164 -166 160 0
-164 -166 -160 0
164 166 -160 -162 0
-164 166 160 -162 0
167 -163 164 0
167 -163 162 0
-167 163 164 0
-167 163 162 0
167 163 -164 -162 0
-167 -163 -164 -162 0
168 164 -162 0
168 -164 162 0
-168 164 162 0
-168 -164 -162 0
169 -167 164 0
169 -167 168 0
-169 167 164 0
-169 167 168 0
169 167 -164 -168 0
-169 -167 -164 -168 0
170 164 -168 0
170 -164 168 0
-170 164 168 0
-170 -164 -168 0
171 172 -169 0
171 -169 170 0
-171 172 169 0
-171 169 170 0
171 -169 -164 0
-171 169 -164 0
171 -172 169 164 -170 0
-171 -172 -169 164 -170 0
172 -164 170 0
-172 164 170 0
-173 170 0
172 -173 -164 0
-172 -173 164 0
172 173 164 -170 0
-172 173 -164 -170 0
-174 170 0
172 -174 164 0
-172 -174 -164 0
172 174 -164 -170 0
-172 174 164 -170 0
175 -171 172 0
175 -171 170 0
-175 171 172 0
-175 171 170 0
175 171 -172 -170 0
-175 -171 -172 -170 0
176 172 -170 0
176 -172 170 0
-176 172 170 0
-176 -172 -170 0
177 -175 137 0
177 -175 176 0
-177 175 137 0
-177 175 176 0
177 -175 172 -141 0
177 -175 -172 141 0
-177 175 172 -141 0
-177 175 -172 141 0
177 175 -137 172 141 -176 0
177 175 -137 -172 -141 -176 0
-177 -175 -137 172 141 -176 0
-177 -175 -137 -172 -141 -176 0
179 137 -172 0
179 -137 172 0
-179 137 172 0
-179 -137 -172 0
178 141 -176 0
178 -141 176 0
-178 141 176 0
-178 -141 -176 0
180 -177 179 0
180 -177 176 0
-180 177 179 0
-180 177 176 0
180 177 -179 -176 0
-180 -177 -179 -176 0
181 179 -176 0
181 -179 176 0
-181 179 176 0
-181 -179 -176 0
182 183 -180 0
182 -180 181 0
-182 183 180 0
-182 180 181 0
182 -180 -179 0
-182 180 -179 0
182 -183 180 179 -181 0
-182 -183 -180 179 -181 0
183 -179 181 0
-183 179 181 0
-184 181 0
183 -184 -179 0
-183 -184 179 0
183 184 179 -181 0
-183 184 -179 -181 0
-185 181 0
183 -185 179 0
-183 -185 -179 0
183 185 -179 -181 0
-183 185 179 -181 0
186 -182 183 0
186 -182 181 0
-186 182 183 0
-186 182 181 0
186 182 -183 -181 0
-186 -182 -183 -181 0
187 183 -181 0
187 -183 181 0
-187 183 181 0
-187 -183 -181 0
188 -186 15 0
188 -186 16 0
-188 186 15 0
-188 186 16 0
188 186 -15 -16 0
-188 -186 -15 -16 0
189 15 -16 0
189 -15 16 0
-189 15 16 0
-189 -15 -16 0
190 191 -188 0
190 -188 189 0
-190 191 188 0
-190 188 189 0
190 -188 -15 0
-190 188 -15 0
190 -191 188 15 -189 0
-190 -191 -188 15 -189 0
191 -15 189 0
-191 15 189 0
-192 189 0
191 -192 -15 0
-191 -192 15 0
191 192 15 -189 0
-191 192 -15 -189 0
-193 189 0
191 -193 15 0
-191 -193 -15 0
191 193 -15 -189 0
-191 193 15 -189 0
194 -190 191 0
194 -190 189 0
-194 190 191 0
-194 190 189 0
194 190 -191 -189 0
-194 -190 -191 -189 0
195 191 -189 0
195 -191 189 0
-195 191 189 0
-195 -191 -189 0
196 -194 191 0
196 -194 195 0
-196 194 191 0
-196 194 195 0
196 194 -191 -195 0
-196 -194 -191 -195 0
197 191 -195 0
197 -191 195 0
-197 191 195 0
-197 -191 -195 0
198 199 -196 0
198 -196 197 0
-198 199 196 0
-198 196 197 0
198 -196 -191 0
-198 196 -191 0
198 -199 196 191 -197 0
-198 -199 -196 191 -197 0
199 -191 197 0
-199 191 197 0
-200 197 0
199 -200 -191 0
-199 -200 191 0
199 200 191 -197 0
-199 200 -191 -197 0
-201 197 0
199 -201 191 0
-199 -201 -191 0
199 201 -191 -197 0
-199 201 191 -197 0
202 -198 199 0
202 -198 197 0
-202 198 199 0
-202 198 197 0
202 198 -199 -197 0
-202 -198 -199 -197 0
203 199 -197 0
203 -199 197 0
-203 199 197 0
-203 -199 -197 0
204 -202 102 0
204 -202 203 0
-204 202 102 0
-204 202 203 0
204 -202 199 -124 0
204 -202 -199 124 0
-204 202 199 -124 0
-204 202 -199 124 0
204 202 -102 199 124 -203 0
204 202 -102 -199 -124 -203 0
-204 -202 -102 199 124 -203 0
-204 -202 -102 -199 -124 -203 0
206 102 -199 0
206 -102 199 0
-206 102 199 0
-206 -102 -199 0
205 124 -203 0
205 -124 203 0
-205 124 203 0
-205 -124 -203 0
207 -204 206 0
207 -204 203 0
-207 204 206 0
-207 204 203 0
207 204 -206 -203 0
-207 -204 -206 -203 0
208 206 -203 0
208 -206 203 0
-208 206 203 0
-208 -206 -203 0
209 210 -207 0
209 -207 208 0
-209 210 207 0
-209 207 208 0
209 -207 -206 0
-209 207 -206 0
209 -210 207 206 -208 0
-209 -210 -207 206 -208 0
210 -206 208 0
-210 206 208 0
-211 208 0
210 -211 -206 0
-210 -211 206 0
210 211 206 -208 0
-210 211 -206 -208 0
-212 208 0
210 -212 206 0
-210 -212 -206 0
210 212 -206 -208 0
-210 212 206 -208 0
213 -209 210 0
213 -209 208 0
-213 209 210 0
-213 209 208 0
213 209 -210 -208 0
-213 -209 -210 -208 0
214 210 -208 0
214 -210 208 0
-214 210 208 0
-214 -210 -208 0
215 -213 210 0
215 -213 214 0
-215 213 210 0
-215 213 214 0
215 213 -210 -214 0
-215 -213 -210 -214 0
216 210 -214 0
216 -210 214 0
-216 210 214 0
-216 -210 -214 0
217 218 -215 0
217 -215 216 0
-217 218 215 0
-217 215 216 0
217 -215 -210 0
-217 215 -210 0
217 -218 215 210 -216 0
-217 -218 -215 210 -216 0
218 -210 216 0
-218 210 216 0
-219 216 0
218 -219 -210 0
-218 -219 210 0
218 219 210 -216 0
-218 219 -210 -216 0
-220 216 0
218 -220 210 0
-218 -220 -210 0
218 220 -210 -216 0
-218 220 210 -216 0
221 -217 218 0
221 -217 216 0
-221 217 218 0
-221 217 216 0
221 217 -218 -216 0
-221 -217 -218 -216 0
222 218 -216 0
222 -218 216 0
-222 218 216 0
-222 -218 -216 0
223 -221 137 0
223 -221 222 0
-223 221 137 0
-223 221 222 0
223 -221 218 -178 0
223 -221 -218 178 0
-223 221 218 -178 0
-223 221 -218 178 0
223 221 -137 218 178 -222 0
223 221 -137 -218 -178 -222 0
-223 -221 -137 218 178 -222 0
-223 -221 -137 -218 -178 -222 0
225 137 -218 0
225 -137 218 0
-225 137 218 0
-225 -137 -218 0
224 178 -222 0
224 -178 222 0
-224 178 222 0
-224 -178 -222 0
226 -223 225 0
226 -223 222 0
-226 223 225 0
-226 223 222 0
226 223 -225 -222 0
-226 -223 -225 -222 0
227 225 -222 0
227 -225 222 0
-227 225 222 0
-227 -225 -222 0
228 229 -226 0
228 -226 227 0
-228 229 226 0
-228 226 227 0
228 -226 -225 0
-228 226 -225 0
228 -229 226 225 -227 0
-228 -229 -226 225 -227 0
229 -225 227 0
-229 225 227 0
-230 227 0
229 -230 -225 0
-229 -230 225 0
229 230 225 -227 0
-229 230 -225 -227 0
-231 227 0
229 -231 225 0
-229 -231 -225 0
229 231 -225 -227 0
-229 231 225 -227 0
232 -228 229 0
232 -228 227 0
-232 228 229 0
-232 228 227 0
232 228 -229 -227 0
-232 -228 -229 -227 0
233 229 -227 0
233 -229 227 0
-233 229 227 0
-233 -229 -227 0
